p edge 199 2055
v 1 319
v 2 704
v 3 322
v 4 287
v 5 225
v 6 657
v 7 530
v 8 536
v 9 348
v 10 528
v 11 318
v 12 669
v 13 508
v 14 618
v 15 529
v 16 229
v 17 574
v 18 617
v 19 553
v 20 467
v 21 663
v 22 637
v 23 357
v 24 686
v 25 207
v 26 697
v 27 444
v 28 509
v 29 446
v 30 247
v 31 642
v 32 420
v 33 531
v 34 371
v 35 693
v 36 363
v 37 470
v 38 352
v 39 651
v 40 676
v 41 549
v 42 450
v 43 676
v 44 567
v 45 315
v 46 286
v 47 636
v 48 554
v 49 319
v 50 361
v 51 262
v 52 605
v 53 258
v 54 429
v 55 315
v 56 237
v 57 371
v 58 596
v 59 244
v 60 516
v 61 650
v 62 631
v 63 538
v 64 489
v 65 600
v 66 341
v 67 682
v 68 255
v 69 324
v 70 607
v 71 536
v 72 532
v 73 388
v 74 236
v 75 498
v 76 483
v 77 637
v 78 338
v 79 453
v 80 630
v 81 585
v 82 557
v 83 222
v 84 239
v 85 236
v 86 650
v 87 217
v 88 314
v 89 636
v 90 248
v 91 455
v 92 498
v 93 255
v 94 659
v 95 359
v 96 400
v 97 582
v 98 247
v 99 345
v 100 251
v 101 660
v 102 328
v 103 351
v 104 588
v 105 330
v 106 546
v 107 695
v 108 672
v 109 489
v 110 220
v 111 507
v 112 374
v 113 534
v 114 223
v 115 300
v 116 661
v 117 206
v 118 239
v 119 262
v 120 677
v 121 234
v 122 260
v 123 653
v 124 321
v 125 228
v 126 354
v 127 463
v 128 392
v 129 353
v 130 610
v 131 579
v 132 659
v 133 438
v 134 698
v 135 534
v 136 507
v 137 480
v 138 365
v 139 433
v 140 316
v 141 444
v 142 478
v 143 277
v 144 677
v 145 329
v 146 381
v 147 217
v 148 422
v 149 417
v 150 620
v 151 534
v 152 514
v 153 564
v 154 213
v 155 678
v 156 368
v 157 650
v 158 697
v 159 463
v 160 495
v 161 522
v 162 452
v 163 304
v 164 493
v 165 628
v 166 604
v 167 291
v 168 593
v 169 484
v 170 287
v 171 548
v 172 643
v 173 681
v 174 656
v 175 520
v 176 603
v 177 502
v 178 257
v 179 686
v 180 575
v 181 661
v 182 481
v 183 650
v 184 647
v 185 574
v 186 642
v 187 259
v 188 228
v 189 308
v 190 621
v 191 695
v 192 640
v 193 567
v 194 612
v 195 494
v 196 680
v 197 358
v 198 312
v 199 474
e 1 2
e 1 3
e 1 4
e 1 5
e 1 6
e 1 7
e 1 8
e 1 9
e 1 10
e 1 11
e 1 14
e 1 38
e 1 81
e 1 105
e 1 141
e 1 161
e 1 170
e 1 179
e 1 190
e 2 3
e 2 4
e 2 5
e 2 6
e 2 7
e 2 8
e 2 9
e 2 10
e 2 11
e 2 18
e 2 28
e 2 49
e 2 61
e 2 73
e 2 85
e 2 108
e 2 121
e 2 144
e 2 162
e 2 173
e 3 4
e 3 5
e 3 6
e 3 7
e 3 8
e 3 9
e 3 10
e 3 11
e 3 41
e 3 50
e 3 97
e 3 109
e 3 122
e 3 132
e 3 152
e 3 182
e 3 192
e 4 5
e 4 6
e 4 7
e 4 8
e 4 9
e 4 10
e 4 11
e 4 51
e 4 74
e 4 87
e 4 98
e 4 110
e 4 133
e 4 146
e 4 154
e 4 174
e 4 183
e 4 194
e 5 6
e 5 7
e 5 8
e 5 9
e 5 10
e 5 11
e 5 30
e 5 52
e 5 62
e 5 88
e 5 134
e 5 163
e 5 175
e 5 184
e 5 195
e 6 7
e 6 8
e 6 9
e 6 10
e 6 11
e 6 21
e 6 32
e 6 53
e 6 90
e 6 100
e 6 112
e 6 125
e 6 185
e 6 197
e 7 8
e 7 9
e 7 10
e 7 11
e 7 22
e 7 33
e 7 54
e 7 64
e 7 76
e 7 113
e 7 126
e 7 147
e 7 155
e 8 9
e 8 10
e 8 11
e 8 34
e 8 42
e 8 55
e 8 65
e 8 91
e 8 127
e 8 135
e 8 148
e 8 165
e 8 176
e 8 186
e 8 198
e 9 10
e 9 11
e 9 23
e 9 35
e 9 43
e 9 56
e 9 66
e 9 101
e 9 114
e 9 128
e 9 136
e 9 156
e 9 187
e 10 11
e 10 24
e 10 57
e 10 67
e 10 77
e 10 115
e 10 129
e 10 137
e 10 149
e 10 157
e 10 166
e 10 188
e 10 199
e 11 25
e 11 44
e 11 68
e 11 78
e 11 102
e 11 116
e 11 130
e 11 138
e 11 150
e 11 158
e 11 167
e 12 13
e 12 14
e 12 15
e 12 16
e 12 17
e 12 18
e 12 19
e 12 20
e 12 21
e 12 22
e 12 23
e 12 24
e 12 25
e 12 36
e 12 45
e 12 79
e 12 92
e 12 103
e 12 117
e 12 139
e 12 159
e 12 168
e 12 177
e 12 189
e 13 14
e 13 15
e 13 16
e 13 17
e 13 18
e 13 19
e 13 20
e 13 21
e 13 22
e 13 23
e 13 24
e 13 25
e 13 26
e 13 37
e 13 46
e 13 69
e 13 80
e 13 93
e 13 104
e 13 118
e 13 140
e 13 160
e 13 169
e 13 178
e 14 15
e 14 16
e 14 17
e 14 18
e 14 19
e 14 20
e 14 21
e 14 22
e 14 23
e 14 24
e 14 25
e 14 38
e 14 81
e 14 105
e 14 141
e 14 161
e 14 170
e 14 179
e 14 190
e 15 16
e 15 17
e 15 18
e 15 19
e 15 20
e 15 21
e 15 22
e 15 23
e 15 24
e 15 25
e 15 39
e 15 47
e 15 58
e 15 70
e 15 82
e 15 94
e 15 131
e 15 171
e 15 180
e 15 191
e 16 17
e 16 18
e 16 19
e 16 20
e 16 21
e 16 22
e 16 23
e 16 24
e 16 25
e 16 27
e 16 59
e 16 71
e 16 83
e 16 95
e 16 106
e 16 119
e 16 142
e 16 172
e 16 181
e 17 18
e 17 19
e 17 20
e 17 21
e 17 22
e 17 23
e 17 24
e 17 25
e 17 40
e 17 48
e 17 60
e 17 72
e 17 84
e 17 96
e 17 107
e 17 120
e 17 143
e 17 151
e 18 19
e 18 20
e 18 21
e 18 22
e 18 23
e 18 24
e 18 25
e 18 28
e 18 49
e 18 61
e 18 73
e 18 85
e 18 108
e 18 121
e 18 144
e 18 162
e 18 173
e 19 20
e 19 21
e 19 22
e 19 23
e 19 24
e 19 25
e 19 29
e 19 86
e 19 123
e 19 145
e 19 153
e 19 193
e 20 21
e 20 22
e 20 23
e 20 24
e 20 25
e 20 31
e 20 63
e 20 75
e 20 89
e 20 99
e 20 111
e 20 124
e 20 164
e 20 196
e 21 22
e 21 23
e 21 24
e 21 25
e 21 32
e 21 53
e 21 90
e 21 100
e 21 112
e 21 125
e 21 185
e 21 197
e 22 23
e 22 24
e 22 25
e 22 33
e 22 54
e 22 64
e 22 76
e 22 113
e 22 126
e 22 147
e 22 155
e 23 24
e 23 25
e 23 35
e 23 43
e 23 56
e 23 66
e 23 101
e 23 114
e 23 128
e 23 136
e 23 156
e 23 187
e 24 25
e 24 57
e 24 67
e 24 77
e 24 115
e 24 129
e 24 137
e 24 149
e 24 157
e 24 166
e 24 188
e 24 199
e 25 44
e 25 68
e 25 78
e 25 102
e 25 116
e 25 130
e 25 138
e 25 150
e 25 158
e 25 167
e 26 27
e 26 28
e 26 29
e 26 30
e 26 31
e 26 32
e 26 33
e 26 34
e 26 35
e 26 37
e 26 46
e 26 69
e 26 80
e 26 93
e 26 104
e 26 118
e 26 140
e 26 160
e 26 169
e 26 178
e 27 28
e 27 29
e 27 30
e 27 31
e 27 32
e 27 33
e 27 34
e 27 35
e 27 59
e 27 71
e 27 83
e 27 95
e 27 106
e 27 119
e 27 142
e 27 172
e 27 181
e 28 29
e 28 30
e 28 31
e 28 32
e 28 33
e 28 34
e 28 35
e 28 49
e 28 61
e 28 73
e 28 85
e 28 108
e 28 121
e 28 144
e 28 162
e 28 173
e 29 30
e 29 31
e 29 32
e 29 33
e 29 34
e 29 35
e 29 86
e 29 123
e 29 145
e 29 153
e 29 193
e 30 31
e 30 32
e 30 33
e 30 34
e 30 35
e 30 52
e 30 62
e 30 88
e 30 134
e 30 163
e 30 175
e 30 184
e 30 195
e 31 32
e 31 33
e 31 34
e 31 35
e 31 63
e 31 75
e 31 89
e 31 99
e 31 111
e 31 124
e 31 164
e 31 196
e 32 33
e 32 34
e 32 35
e 32 53
e 32 90
e 32 100
e 32 112
e 32 125
e 32 185
e 32 197
e 33 34
e 33 35
e 33 54
e 33 64
e 33 76
e 33 113
e 33 126
e 33 147
e 33 155
e 34 35
e 34 42
e 34 55
e 34 65
e 34 91
e 34 127
e 34 135
e 34 148
e 34 165
e 34 176
e 34 186
e 34 198
e 35 43
e 35 56
e 35 66
e 35 101
e 35 114
e 35 128
e 35 136
e 35 156
e 35 187
e 36 37
e 36 38
e 36 39
e 36 40
e 36 41
e 36 42
e 36 43
e 36 44
e 36 45
e 36 79
e 36 92
e 36 103
e 36 117
e 36 139
e 36 159
e 36 168
e 36 177
e 36 189
e 37 38
e 37 39
e 37 40
e 37 41
e 37 42
e 37 43
e 37 44
e 37 46
e 37 69
e 37 80
e 37 93
e 37 104
e 37 118
e 37 140
e 37 160
e 37 169
e 37 178
e 38 39
e 38 40
e 38 41
e 38 42
e 38 43
e 38 44
e 38 81
e 38 105
e 38 141
e 38 161
e 38 170
e 38 179
e 38 190
e 39 40
e 39 41
e 39 42
e 39 43
e 39 44
e 39 47
e 39 58
e 39 70
e 39 82
e 39 94
e 39 131
e 39 171
e 39 180
e 39 191
e 40 41
e 40 42
e 40 43
e 40 44
e 40 48
e 40 60
e 40 72
e 40 84
e 40 96
e 40 107
e 40 120
e 40 143
e 40 151
e 41 42
e 41 43
e 41 44
e 41 50
e 41 97
e 41 109
e 41 122
e 41 132
e 41 152
e 41 182
e 41 192
e 42 43
e 42 44
e 42 55
e 42 65
e 42 91
e 42 127
e 42 135
e 42 148
e 42 165
e 42 176
e 42 186
e 42 198
e 43 44
e 43 56
e 43 66
e 43 101
e 43 114
e 43 128
e 43 136
e 43 156
e 43 187
e 44 68
e 44 78
e 44 102
e 44 116
e 44 130
e 44 138
e 44 150
e 44 158
e 44 167
e 45 46
e 45 47
e 45 48
e 45 49
e 45 50
e 45 51
e 45 52
e 45 53
e 45 54
e 45 55
e 45 56
e 45 57
e 45 79
e 45 92
e 45 103
e 45 117
e 45 139
e 45 159
e 45 168
e 45 177
e 45 189
e 46 47
e 46 48
e 46 49
e 46 50
e 46 51
e 46 52
e 46 53
e 46 54
e 46 55
e 46 56
e 46 57
e 46 69
e 46 80
e 46 93
e 46 104
e 46 118
e 46 140
e 46 160
e 46 169
e 46 178
e 47 48
e 47 49
e 47 50
e 47 51
e 47 52
e 47 53
e 47 54
e 47 55
e 47 56
e 47 57
e 47 58
e 47 70
e 47 82
e 47 94
e 47 131
e 47 171
e 47 180
e 47 191
e 48 49
e 48 50
e 48 51
e 48 52
e 48 53
e 48 54
e 48 55
e 48 56
e 48 57
e 48 60
e 48 72
e 48 84
e 48 96
e 48 107
e 48 120
e 48 143
e 48 151
e 49 50
e 49 51
e 49 52
e 49 53
e 49 54
e 49 55
e 49 56
e 49 57
e 49 61
e 49 73
e 49 85
e 49 108
e 49 121
e 49 144
e 49 162
e 49 173
e 50 51
e 50 52
e 50 53
e 50 54
e 50 55
e 50 56
e 50 57
e 50 97
e 50 109
e 50 122
e 50 132
e 50 152
e 50 182
e 50 192
e 51 52
e 51 53
e 51 54
e 51 55
e 51 56
e 51 57
e 51 74
e 51 87
e 51 98
e 51 110
e 51 133
e 51 146
e 51 154
e 51 174
e 51 183
e 51 194
e 52 53
e 52 54
e 52 55
e 52 56
e 52 57
e 52 62
e 52 88
e 52 134
e 52 163
e 52 175
e 52 184
e 52 195
e 53 54
e 53 55
e 53 56
e 53 57
e 53 90
e 53 100
e 53 112
e 53 125
e 53 185
e 53 197
e 54 55
e 54 56
e 54 57
e 54 64
e 54 76
e 54 113
e 54 126
e 54 147
e 54 155
e 55 56
e 55 57
e 55 65
e 55 91
e 55 127
e 55 135
e 55 148
e 55 165
e 55 176
e 55 186
e 55 198
e 56 57
e 56 66
e 56 101
e 56 114
e 56 128
e 56 136
e 56 156
e 56 187
e 57 67
e 57 77
e 57 115
e 57 129
e 57 137
e 57 149
e 57 157
e 57 166
e 57 188
e 57 199
e 58 59
e 58 60
e 58 61
e 58 62
e 58 63
e 58 64
e 58 65
e 58 66
e 58 67
e 58 68
e 58 70
e 58 82
e 58 94
e 58 131
e 58 171
e 58 180
e 58 191
e 59 60
e 59 61
e 59 62
e 59 63
e 59 64
e 59 65
e 59 66
e 59 67
e 59 68
e 59 71
e 59 83
e 59 95
e 59 106
e 59 119
e 59 142
e 59 172
e 59 181
e 60 61
e 60 62
e 60 63
e 60 64
e 60 65
e 60 66
e 60 67
e 60 68
e 60 72
e 60 84
e 60 96
e 60 107
e 60 120
e 60 143
e 60 151
e 61 62
e 61 63
e 61 64
e 61 65
e 61 66
e 61 67
e 61 68
e 61 73
e 61 85
e 61 108
e 61 121
e 61 144
e 61 162
e 61 173
e 62 63
e 62 64
e 62 65
e 62 66
e 62 67
e 62 68
e 62 88
e 62 134
e 62 163
e 62 175
e 62 184
e 62 195
e 63 64
e 63 65
e 63 66
e 63 67
e 63 68
e 63 75
e 63 89
e 63 99
e 63 111
e 63 124
e 63 164
e 63 196
e 64 65
e 64 66
e 64 67
e 64 68
e 64 76
e 64 113
e 64 126
e 64 147
e 64 155
e 65 66
e 65 67
e 65 68
e 65 91
e 65 127
e 65 135
e 65 148
e 65 165
e 65 176
e 65 186
e 65 198
e 66 67
e 66 68
e 66 101
e 66 114
e 66 128
e 66 136
e 66 156
e 66 187
e 67 68
e 67 77
e 67 115
e 67 129
e 67 137
e 67 149
e 67 157
e 67 166
e 67 188
e 67 199
e 68 78
e 68 102
e 68 116
e 68 130
e 68 138
e 68 150
e 68 158
e 68 167
e 69 70
e 69 71
e 69 72
e 69 73
e 69 74
e 69 75
e 69 76
e 69 77
e 69 78
e 69 80
e 69 93
e 69 104
e 69 118
e 69 140
e 69 160
e 69 169
e 69 178
e 70 71
e 70 72
e 70 73
e 70 74
e 70 75
e 70 76
e 70 77
e 70 78
e 70 82
e 70 94
e 70 131
e 70 171
e 70 180
e 70 191
e 71 72
e 71 73
e 71 74
e 71 75
e 71 76
e 71 77
e 71 78
e 71 83
e 71 95
e 71 106
e 71 119
e 71 142
e 71 172
e 71 181
e 72 73
e 72 74
e 72 75
e 72 76
e 72 77
e 72 78
e 72 84
e 72 96
e 72 107
e 72 120
e 72 143
e 72 151
e 73 74
e 73 75
e 73 76
e 73 77
e 73 78
e 73 85
e 73 108
e 73 121
e 73 144
e 73 162
e 73 173
e 74 75
e 74 76
e 74 77
e 74 78
e 74 87
e 74 98
e 74 110
e 74 133
e 74 146
e 74 154
e 74 174
e 74 183
e 74 194
e 75 76
e 75 77
e 75 78
e 75 89
e 75 99
e 75 111
e 75 124
e 75 164
e 75 196
e 76 77
e 76 78
e 76 113
e 76 126
e 76 147
e 76 155
e 77 78
e 77 115
e 77 129
e 77 137
e 77 149
e 77 157
e 77 166
e 77 188
e 77 199
e 78 102
e 78 116
e 78 130
e 78 138
e 78 150
e 78 158
e 78 167
e 79 80
e 79 81
e 79 82
e 79 83
e 79 84
e 79 85
e 79 86
e 79 87
e 79 88
e 79 89
e 79 90
e 79 91
e 79 92
e 79 103
e 79 117
e 79 139
e 79 159
e 79 168
e 79 177
e 79 189
e 80 81
e 80 82
e 80 83
e 80 84
e 80 85
e 80 86
e 80 87
e 80 88
e 80 89
e 80 90
e 80 91
e 80 93
e 80 104
e 80 118
e 80 140
e 80 160
e 80 169
e 80 178
e 81 82
e 81 83
e 81 84
e 81 85
e 81 86
e 81 87
e 81 88
e 81 89
e 81 90
e 81 91
e 81 105
e 81 141
e 81 161
e 81 170
e 81 179
e 81 190
e 82 83
e 82 84
e 82 85
e 82 86
e 82 87
e 82 88
e 82 89
e 82 90
e 82 91
e 82 94
e 82 131
e 82 171
e 82 180
e 82 191
e 83 84
e 83 85
e 83 86
e 83 87
e 83 88
e 83 89
e 83 90
e 83 91
e 83 95
e 83 106
e 83 119
e 83 142
e 83 172
e 83 181
e 84 85
e 84 86
e 84 87
e 84 88
e 84 89
e 84 90
e 84 91
e 84 96
e 84 107
e 84 120
e 84 143
e 84 151
e 85 86
e 85 87
e 85 88
e 85 89
e 85 90
e 85 91
e 85 108
e 85 121
e 85 144
e 85 162
e 85 173
e 86 87
e 86 88
e 86 89
e 86 90
e 86 91
e 86 123
e 86 145
e 86 153
e 86 193
e 87 88
e 87 89
e 87 90
e 87 91
e 87 98
e 87 110
e 87 133
e 87 146
e 87 154
e 87 174
e 87 183
e 87 194
e 88 89
e 88 90
e 88 91
e 88 134
e 88 163
e 88 175
e 88 184
e 88 195
e 89 90
e 89 91
e 89 99
e 89 111
e 89 124
e 89 164
e 89 196
e 90 91
e 90 100
e 90 112
e 90 125
e 90 185
e 90 197
e 91 127
e 91 135
e 91 148
e 91 165
e 91 176
e 91 186
e 91 198
e 92 93
e 92 94
e 92 95
e 92 96
e 92 97
e 92 98
e 92 99
e 92 100
e 92 101
e 92 102
e 92 103
e 92 117
e 92 139
e 92 159
e 92 168
e 92 177
e 92 189
e 93 94
e 93 95
e 93 96
e 93 97
e 93 98
e 93 99
e 93 100
e 93 101
e 93 102
e 93 104
e 93 118
e 93 140
e 93 160
e 93 169
e 93 178
e 94 95
e 94 96
e 94 97
e 94 98
e 94 99
e 94 100
e 94 101
e 94 102
e 94 131
e 94 171
e 94 180
e 94 191
e 95 96
e 95 97
e 95 98
e 95 99
e 95 100
e 95 101
e 95 102
e 95 106
e 95 119
e 95 142
e 95 172
e 95 181
e 96 97
e 96 98
e 96 99
e 96 100
e 96 101
e 96 102
e 96 107
e 96 120
e 96 143
e 96 151
e 97 98
e 97 99
e 97 100
e 97 101
e 97 102
e 97 109
e 97 122
e 97 132
e 97 152
e 97 182
e 97 192
e 98 99
e 98 100
e 98 101
e 98 102
e 98 110
e 98 133
e 98 146
e 98 154
e 98 174
e 98 183
e 98 194
e 99 100
e 99 101
e 99 102
e 99 111
e 99 124
e 99 164
e 99 196
e 100 101
e 100 102
e 100 112
e 100 125
e 100 185
e 100 197
e 101 102
e 101 114
e 101 128
e 101 136
e 101 156
e 101 187
e 102 116
e 102 130
e 102 138
e 102 150
e 102 158
e 102 167
e 103 104
e 103 105
e 103 106
e 103 107
e 103 108
e 103 109
e 103 110
e 103 111
e 103 112
e 103 113
e 103 114
e 103 115
e 103 116
e 103 117
e 103 139
e 103 159
e 103 168
e 103 177
e 103 189
e 104 105
e 104 106
e 104 107
e 104 108
e 104 109
e 104 110
e 104 111
e 104 112
e 104 113
e 104 114
e 104 115
e 104 116
e 104 118
e 104 140
e 104 160
e 104 169
e 104 178
e 105 106
e 105 107
e 105 108
e 105 109
e 105 110
e 105 111
e 105 112
e 105 113
e 105 114
e 105 115
e 105 116
e 105 141
e 105 161
e 105 170
e 105 179
e 105 190
e 106 107
e 106 108
e 106 109
e 106 110
e 106 111
e 106 112
e 106 113
e 106 114
e 106 115
e 106 116
e 106 119
e 106 142
e 106 172
e 106 181
e 107 108
e 107 109
e 107 110
e 107 111
e 107 112
e 107 113
e 107 114
e 107 115
e 107 116
e 107 120
e 107 143
e 107 151
e 108 109
e 108 110
e 108 111
e 108 112
e 108 113
e 108 114
e 108 115
e 108 116
e 108 121
e 108 144
e 108 162
e 108 173
e 109 110
e 109 111
e 109 112
e 109 113
e 109 114
e 109 115
e 109 116
e 109 122
e 109 132
e 109 152
e 109 182
e 109 192
e 110 111
e 110 112
e 110 113
e 110 114
e 110 115
e 110 116
e 110 133
e 110 146
e 110 154
e 110 174
e 110 183
e 110 194
e 111 112
e 111 113
e 111 114
e 111 115
e 111 116
e 111 124
e 111 164
e 111 196
e 112 113
e 112 114
e 112 115
e 112 116
e 112 125
e 112 185
e 112 197
e 113 114
e 113 115
e 113 116
e 113 126
e 113 147
e 113 155
e 114 115
e 114 116
e 114 128
e 114 136
e 114 156
e 114 187
e 115 116
e 115 129
e 115 137
e 115 149
e 115 157
e 115 166
e 115 188
e 115 199
e 116 130
e 116 138
e 116 150
e 116 158
e 116 167
e 117 118
e 117 119
e 117 120
e 117 121
e 117 122
e 117 123
e 117 124
e 117 125
e 117 126
e 117 127
e 117 128
e 117 129
e 117 130
e 117 139
e 117 159
e 117 168
e 117 177
e 117 189
e 118 119
e 118 120
e 118 121
e 118 122
e 118 123
e 118 124
e 118 125
e 118 126
e 118 127
e 118 128
e 118 129
e 118 130
e 118 140
e 118 160
e 118 169
e 118 178
e 119 120
e 119 121
e 119 122
e 119 123
e 119 124
e 119 125
e 119 126
e 119 127
e 119 128
e 119 129
e 119 130
e 119 142
e 119 172
e 119 181
e 120 121
e 120 122
e 120 123
e 120 124
e 120 125
e 120 126
e 120 127
e 120 128
e 120 129
e 120 130
e 120 143
e 120 151
e 121 122
e 121 123
e 121 124
e 121 125
e 121 126
e 121 127
e 121 128
e 121 129
e 121 130
e 121 144
e 121 162
e 121 173
e 122 123
e 122 124
e 122 125
e 122 126
e 122 127
e 122 128
e 122 129
e 122 130
e 122 132
e 122 152
e 122 182
e 122 192
e 123 124
e 123 125
e 123 126
e 123 127
e 123 128
e 123 129
e 123 130
e 123 145
e 123 153
e 123 193
e 124 125
e 124 126
e 124 127
e 124 128
e 124 129
e 124 130
e 124 164
e 124 196
e 125 126
e 125 127
e 125 128
e 125 129
e 125 130
e 125 185
e 125 197
e 126 127
e 126 128
e 126 129
e 126 130
e 126 147
e 126 155
e 127 128
e 127 129
e 127 130
e 127 135
e 127 148
e 127 165
e 127 176
e 127 186
e 127 198
e 128 129
e 128 130
e 128 136
e 128 156
e 128 187
e 129 130
e 129 137
e 129 149
e 129 157
e 129 166
e 129 188
e 129 199
e 130 138
e 130 150
e 130 158
e 130 167
e 131 132
e 131 133
e 131 134
e 131 135
e 131 136
e 131 137
e 131 138
e 131 171
e 131 180
e 131 191
e 132 133
e 132 134
e 132 135
e 132 136
e 132 137
e 132 138
e 132 152
e 132 182
e 132 192
e 133 134
e 133 135
e 133 136
e 133 137
e 133 138
e 133 146
e 133 154
e 133 174
e 133 183
e 133 194
e 134 135
e 134 136
e 134 137
e 134 138
e 134 163
e 134 175
e 134 184
e 134 195
e 135 136
e 135 137
e 135 138
e 135 148
e 135 165
e 135 176
e 135 186
e 135 198
e 136 137
e 136 138
e 136 156
e 136 187
e 137 138
e 137 149
e 137 157
e 137 166
e 137 188
e 137 199
e 138 150
e 138 158
e 138 167
e 139 140
e 139 141
e 139 142
e 139 143
e 139 144
e 139 145
e 139 146
e 139 147
e 139 148
e 139 149
e 139 150
e 139 159
e 139 168
e 139 177
e 139 189
e 140 141
e 140 142
e 140 143
e 140 144
e 140 145
e 140 146
e 140 147
e 140 148
e 140 149
e 140 150
e 140 160
e 140 169
e 140 178
e 141 142
e 141 143
e 141 144
e 141 145
e 141 146
e 141 147
e 141 148
e 141 149
e 141 150
e 141 161
e 141 170
e 141 179
e 141 190
e 142 143
e 142 144
e 142 145
e 142 146
e 142 147
e 142 148
e 142 149
e 142 150
e 142 172
e 142 181
e 143 144
e 143 145
e 143 146
e 143 147
e 143 148
e 143 149
e 143 150
e 143 151
e 144 145
e 144 146
e 144 147
e 144 148
e 144 149
e 144 150
e 144 162
e 144 173
e 145 146
e 145 147
e 145 148
e 145 149
e 145 150
e 145 153
e 145 193
e 146 147
e 146 148
e 146 149
e 146 150
e 146 154
e 146 174
e 146 183
e 146 194
e 147 148
e 147 149
e 147 150
e 147 155
e 148 149
e 148 150
e 148 165
e 148 176
e 148 186
e 148 198
e 149 150
e 149 157
e 149 166
e 149 188
e 149 199
e 150 158
e 150 167
e 151 152
e 151 153
e 151 154
e 151 155
e 151 156
e 151 157
e 151 158
e 152 153
e 152 154
e 152 155
e 152 156
e 152 157
e 152 158
e 152 182
e 152 192
e 153 154
e 153 155
e 153 156
e 153 157
e 153 158
e 153 193
e 154 155
e 154 156
e 154 157
e 154 158
e 154 174
e 154 183
e 154 194
e 155 156
e 155 157
e 155 158
e 156 157
e 156 158
e 156 187
e 157 158
e 157 166
e 157 188
e 157 199
e 158 167
e 159 160
e 159 161
e 159 162
e 159 163
e 159 164
e 159 165
e 159 166
e 159 167
e 159 168
e 159 177
e 159 189
e 160 161
e 160 162
e 160 163
e 160 164
e 160 165
e 160 166
e 160 167
e 160 169
e 160 178
e 161 162
e 161 163
e 161 164
e 161 165
e 161 166
e 161 167
e 161 170
e 161 179
e 161 190
e 162 163
e 162 164
e 162 165
e 162 166
e 162 167
e 162 173
e 163 164
e 163 165
e 163 166
e 163 167
e 163 175
e 163 184
e 163 195
e 164 165
e 164 166
e 164 167
e 164 196
e 165 166
e 165 167
e 165 176
e 165 186
e 165 198
e 166 167
e 166 188
e 166 199
e 168 169
e 168 170
e 168 171
e 168 172
e 168 173
e 168 174
e 168 175
e 168 176
e 168 177
e 168 189
e 169 170
e 169 171
e 169 172
e 169 173
e 169 174
e 169 175
e 169 176
e 169 178
e 170 171
e 170 172
e 170 173
e 170 174
e 170 175
e 170 176
e 170 179
e 170 190
e 171 172
e 171 173
e 171 174
e 171 175
e 171 176
e 171 180
e 171 191
e 172 173
e 172 174
e 172 175
e 172 176
e 172 181
e 173 174
e 173 175
e 173 176
e 174 175
e 174 176
e 174 183
e 174 194
e 175 176
e 175 184
e 175 195
e 176 186
e 176 198
e 177 178
e 177 179
e 177 180
e 177 181
e 177 182
e 177 183
e 177 184
e 177 185
e 177 186
e 177 187
e 177 188
e 177 189
e 178 179
e 178 180
e 178 181
e 178 182
e 178 183
e 178 184
e 178 185
e 178 186
e 178 187
e 178 188
e 179 180
e 179 181
e 179 182
e 179 183
e 179 184
e 179 185
e 179 186
e 179 187
e 179 188
e 179 190
e 180 181
e 180 182
e 180 183
e 180 184
e 180 185
e 180 186
e 180 187
e 180 188
e 180 191
e 181 182
e 181 183
e 181 184
e 181 185
e 181 186
e 181 187
e 181 188
e 182 183
e 182 184
e 182 185
e 182 186
e 182 187
e 182 188
e 182 192
e 183 184
e 183 185
e 183 186
e 183 187
e 183 188
e 183 194
e 184 185
e 184 186
e 184 187
e 184 188
e 184 195
e 185 186
e 185 187
e 185 188
e 185 197
e 186 187
e 186 188
e 186 198
e 187 188
e 188 199
e 189 190
e 189 191
e 189 192
e 189 193
e 189 194
e 189 195
e 189 196
e 189 197
e 189 198
e 189 199
e 190 191
e 190 192
e 190 193
e 190 194
e 190 195
e 190 196
e 190 197
e 190 198
e 190 199
e 191 192
e 191 193
e 191 194
e 191 195
e 191 196
e 191 197
e 191 198
e 191 199
e 192 193
e 192 194
e 192 195
e 192 196
e 192 197
e 192 198
e 192 199
e 193 194
e 193 195
e 193 196
e 193 197
e 193 198
e 193 199
e 194 195
e 194 196
e 194 197
e 194 198
e 194 199
e 195 196
e 195 197
e 195 198
e 195 199
e 196 197
e 196 198
e 196 199
e 197 198
e 197 199
e 198 199
